problem_generation/data/GISP/train/er_n=65_m=1222_p=0.60_SET2_setparam=100.00_alpha=0.50_976.lp
maximize
OBJ:100x0 + 100x1 + 100x2 + 100x3 + 100x4 + 100x5 + 100x6 + 100x7 + 100x8 + 100x9 + 100x10 + 100x11 + 100x12 + 100x13 + 100x14 + 100x15 + 100x16 + 100x17 + 100x18 + 100x19 + 100x20 + 100x21 + 100x22 + 100x23 + 100x24 + 100x25 + 100x26 + 100x27 + 100x28 + 100x29 + 100x30 + 100x31 + 100x32 + 100x33 + 100x34 + 100x35 + 100x36 + 100x37 + 100x38 + 100x39 + 100x40 + 100x41 + 100x42 + 100x43 + 100x44 + 100x45 + 100x46 + 100x47 + 100x48 + 100x49 + 100x50 + 100x51 + 100x52 + 100x53 + 100x54 + 100x55 + 100x56 + 100x57 + 100x58 + 100x59 + 100x60 + 100x61 + 100x62 + 100x63 + 100x64 - y15_21 - y36_53 - y15_30 - y26_30 - y7_26 - y18_26 - y15_39 - y28_58 - y7_35 - y18_35 - y18_44 - y0_5 - y40_41 - y6_48 - y29_50 - y40_50 - y21_46 - y0_23 - y11_23 - y21_55 - y10_27 - y33_38 - y10_45 - y44_47 - y14_15 - y10_63 - y22_28 - y2_59 - y14_24 - y32_60 - y3_42 - y15_16 - y7_12 - y36_48 - y15_25 - y47_48 - y7_21 - y36_57 - y17_53 - y17_62 - y28_62 - y0_9 - y40_54 - y6_61 - y29_63 - y10_22 - y2_27 - y51_59 - y32_55 - y43_55 - y3_28 - y32_64 - y14_37 - y55_56 - y7_16 - y17_48 - y59_63 - y5_55 - y17_57 - y28_57 - y5_64 - y29_31 - y21_27 - y2_13 - y39_62 - y62_64 - y25_42 - y35_46 - y24_64 - y36_38 - y17_34 - y28_34 - y7_11 - y36_47 - y5_41 - y36_56 - y47_56 - y28_52 - y6_15 - y17_61 - y21_22 - y42_63 - y31_62 - y10_39 - y2_35 - y32_45 - y16_37 - y1_57 - y35_59 - y5_27 - y5_36 - y36_51 - y47_51 - y5_54 - y6_28 - y29_30 - y9_61 - y21_26 - y39_43 - y62_63 - y12_44 - y20_57 - y4_49 - y35_36 - y16_32 - y43_58 - y16_41 - y24_54 - y35_54 - y13_63 - y24_63 - y17_24 - y36_37 - y9_20 - y5_31 - y17_42 - y28_42 - y9_38 - y5_49 - y6_14 - y9_47 - y6_32 - y27_64 - y8_60 - y0_56 - y39_47 - y12_39 - y2_16 - y31_52 - y54_63 - y4_44 - y12_57 - y13_22 - y4_53 - y24_31 - y4_62 - y16_27 - y24_40 - y35_40 - y43_53 - y16_36 - y5_8 - y5_17 - y5_26 - y17_28 - y5_35 - y28_37 - y50_52 - y30_46 - y8_55 - y0_51 - y19_64 - y20_29 - y30_64 - y11_60 - y39_51 - y12_34 - y23_43 - y31_56 - y4_48 - y12_61 - y53_62 - y32_39 - y16_22 - y24_35 - y1_42 - y1_51 - y9_10 - y5_21 - y9_19 - y15_53 - y49_64 - y8_32 - y8_41 - y27_63 - y8_59 - y19_59 - y0_55 - y11_55 - y20_33 - y39_46 - y12_29 - y23_29 - y20_42 - y23_38 - y20_51 - y4_34 - y12_47 - y1_10 - y23_47 - y34_62 - y1_37 - y46_54 - y9_14 - y26_48 - y49_50 - y27_31 - y19_36 - y19_45 - y30_45 - y42_47 - y19_54 - y20_28 - y20_37 - y31_37 - y12_42 - y1_5 - y1_14 - y1_23 - y3_60 - y14_60 - y15_34 - y46_58 - y15_52 - y49_54 - y7_57 - y8_22 - y19_22 - y27_44 - y8_40 - y27_53 - y0_36 - y11_36 - y8_49 - y19_49 - y20_23 - y4_6 - y41_55 - y31_32 - y4_15 - y33_51 - y12_28 - y41_64 - y4_24 - y23_37 - y22_41 - y1_18 - y37_39 - y34_52 - y3_46 - y34_61 - y45_61 - y14_55 - y37_57 - y5_6 - y26_38 - y38_40 - y7_34 - y18_34 - y15_47 - y26_47 - y7_61 - y8_26 - y18_61 - y19_26 - y11_22 - y27_39 - y8_35 - y29_58 - y11_31 - y8_44 - y21_63 - y11_49 - y4_10 - y44_46 - y12_23 - y52_59 - y10_53 - y33_55 - y4_28 - y33_64 - y25_60 - y34_47 - y45_47 - y37_52 - y3_59 - y18_20 - y26_33 - y18_29 - y15_42 - y15_51 - y26_51 - y7_47 - y18_47 - y8_21 - y48_57 - y11_17 - y29_53 - y11_26 - y4_5 - y52_54 - y44_50 - y41_63 - y52_63 - y33_59 - y2_53 - y22_31 - y2_62 - y22_40 - y34_42 - y22_49 - y3_54 - y26_28 - y55_64 - y18_24 - y47_60 - y15_37 - y26_46 - y8_16 - y48_52 - y48_61 - y21_44 - y11_21 - y29_57 - y6_64 - y10_34 - y33_36 - y33_45 - y25_41 - y33_54 - y44_54 - y10_61 - y22_26 - y3_22 - y34_37 - y3_31 - y3_40 - y37_42 - y3_49 - y36_46 - y7_19 - y18_19 - y15_32 - y36_64 - y47_64 - y17_60 - y7_37 - y9_56 - y18_37 - y8_11 - y21_39 - y0_16 - y29_52 - y29_61 - y10_20 - y41_44 - y10_38 - y33_40 - y44_49 - y25_45 - y10_56 - y3_17 - y24_58 - y14_44 - y55_63 - y17_46 - y28_46 - y36_59 - y9_51 - y5_62 - y9_60 - y21_25 - y6_36 - y29_38 - y29_47 - y29_56 - y21_52 - y21_61 - y2_20 - y25_31 - y10_42 - y3_12 - y22_25 - y43_57 - y24_53 - y35_53 - y1_60 - y17_32 - y55_58 - y28_50 - y9_46 - y28_59 - y9_55 - y6_31 - y2_6 - y39_64 - y32_43 - y51_56 - y3_16 - y13_48 - y14_25 - y32_61 - y43_61 - y35_57 - y16_62 - y5_34 - y9_41 - y17_54 - y6_26 - y21_24 - y50_60 - y29_37 - y10_14 - y31_46 - y31_55 - y54_57 - y10_32 - y12_51 - y23_60 - y4_56 - y32_38 - y13_34 - y24_34 - y3_11 - y1_41 - y13_43 - y16_39 - y1_50 - y5_20 - y17_31 - y17_40 - y6_12 - y9_45 - y6_21 - y6_39 - y11_63 - y23_46 - y2_23 - y23_64 - y43_51 - y35_47 - y1_54 - y13_56 - y9_13 - y17_26 - y46_62 - y36_39 - y17_35 - y6_7 - y42_46 - y50_59 - y8_53 - y0_49 - y30_62 - y0_58 - y12_32 - y23_32 - y20_45 - y39_58 - y12_41 - y54_56 - y12_50 - y13_15 - y4_46 - y12_59 - y53_60 - y16_20 - y24_33 - y13_42 - y35_51 - y46_48 - y5_19 - y9_17 - y38_62 - y49_62 - y6_20 - y27_52 - y50_63 - y0_44 - y19_57 - y11_53 - y11_62 - y23_27 - y31_40 - y4_23 - y4_32 - y1_8 - y20_58 - y1_26 - y13_28 - y4_59 - y16_24 - y24_28 - y13_37 - y16_33 - y38_39 - y5_14 - y9_12 - y15_46 - y5_23 - y9_21 - y26_64 - y27_29 - y30_34 - y30_43 - y27_56 - y11_39 - y8_52 - y23_31 - y12_40 - y12_49 - y23_49 - y1_21 - y16_19 - y16_28 - y34_64 - y15_41 - y26_41 - y46_56 - y38_52 - y15_59 - y49_61 - y8_20 - y8_29 - y19_29 - y30_38 - y8_47 - y0_43 - y19_56 - y20_21 - y30_56 - y20_30 - y0_61 - y23_35 - y23_44 - y25_63 - y34_50 - y45_50 - y53_63 - y45_59 - y56_59 - y3_53 - y14_62 - y26_27 - y49_56 - y7_50 - y18_50 - y15_63 - y27_46 - y0_29 - y30_42 - y11_38 - y19_51 - y0_47 - y20_25 - y4_8 - y12_21 - y41_57 - y52_57 - y12_30 - y23_30 - y10_60 - y33_62 - y34_36 - y22_43 - y22_52 - y34_54 - y22_61 - y34_63 - y45_63 - y14_57 - y7_18 - y15_40 - y7_36 - y11_15 - y8_28 - y48_64 - y30_37 - y21_56 - y41_61 - y25_44 - y52_61 - y2_51 - y25_62 - y34_40 - y34_49 - y3_43 - y37_45 - y45_58 - y14_52 - y15_17 - y3_61 - y15_26 - y55_62 - y15_35 - y15_44 - y17_63 - y26_44 - y7_40 - y18_40 - y18_49 - y40_46 - y19_23 - y29_55 - y30_32 - y6_62 - y11_28 - y29_64 - y41_47 - y10_41 - y33_61 - y14_29 - y34_44 - y37_40 - y14_56
 Subject to
C1: x0+x3 <=1 
C2: x0+x5-y0_5 <=1 
C3: x0+x6 <=1 
C4: x0+x9-y0_9 <=1 
C5: x0+x11 <=1 
C6: x0+x12 <=1 
C7: x0+x14 <=1 
C8: x0+x16-y0_16 <=1 
C9: x0+x20 <=1 
C10: x0+x22 <=1 
C11: x0+x23-y0_23 <=1 
C12: x0+x24 <=1 
C13: x0+x26 <=1 
C14: x0+x28 <=1 
C15: x0+x29-y0_29 <=1 
C16: x0+x31 <=1 
C17: x0+x32 <=1 
C18: x0+x34 <=1 
C19: x0+x36-y0_36 <=1 
C20: x0+x37 <=1 
C21: x0+x38 <=1 
C22: x0+x43-y0_43 <=1 
C23: x0+x44-y0_44 <=1 
C24: x0+x45 <=1 
C25: x0+x47-y0_47 <=1 
C26: x0+x48 <=1 
C27: x0+x49-y0_49 <=1 
C28: x0+x51-y0_51 <=1 
C29: x0+x52 <=1 
C30: x0+x55-y0_55 <=1 
C31: x0+x56-y0_56 <=1 
C32: x0+x57 <=1 
C33: x0+x58-y0_58 <=1 
C34: x0+x59 <=1 
C35: x0+x60 <=1 
C36: x0+x61-y0_61 <=1 
C37: x0+x62 <=1 
C38: x0+x63 <=1 
C39: x0+x64 <=1 
C40: x1+x3 <=1 
C41: x1+x4 <=1 
C42: x1+x5-y1_5 <=1 
C43: x1+x8-y1_8 <=1 
C44: x1+x10-y1_10 <=1 
C45: x1+x12 <=1 
C46: x1+x13 <=1 
C47: x1+x14-y1_14 <=1 
C48: x1+x18-y1_18 <=1 
C49: x1+x20 <=1 
C50: x1+x21-y1_21 <=1 
C51: x1+x23-y1_23 <=1 
C52: x1+x24 <=1 
C53: x1+x25 <=1 
C54: x1+x26-y1_26 <=1 
C55: x1+x34 <=1 
C56: x1+x36 <=1 
C57: x1+x37-y1_37 <=1 
C58: x1+x41-y1_41 <=1 
C59: x1+x42-y1_42 <=1 
C60: x1+x45 <=1 
C61: x1+x50-y1_50 <=1 
C62: x1+x51-y1_51 <=1 
C63: x1+x54-y1_54 <=1 
C64: x1+x55 <=1 
C65: x1+x57-y1_57 <=1 
C66: x1+x60-y1_60 <=1 
C67: x1+x62 <=1 
C68: x1+x63 <=1 
C69: x2+x4 <=1 
C70: x2+x6-y2_6 <=1 
C71: x2+x7 <=1 
C72: x2+x10 <=1 
C73: x2+x12 <=1 
C74: x2+x13-y2_13 <=1 
C75: x2+x14 <=1 
C76: x2+x16-y2_16 <=1 
C77: x2+x17 <=1 
C78: x2+x18 <=1 
C79: x2+x19 <=1 
C80: x2+x20-y2_20 <=1 
C81: x2+x21 <=1 
C82: x2+x22 <=1 
C83: x2+x23-y2_23 <=1 
C84: x2+x24 <=1 
C85: x2+x27-y2_27 <=1 
C86: x2+x31 <=1 
C87: x2+x32 <=1 
C88: x2+x35-y2_35 <=1 
C89: x2+x38 <=1 
C90: x2+x39 <=1 
C91: x2+x41 <=1 
C92: x2+x43 <=1 
C93: x2+x45 <=1 
C94: x2+x46 <=1 
C95: x2+x47 <=1 
C96: x2+x48 <=1 
C97: x2+x50 <=1 
C98: x2+x51-y2_51 <=1 
C99: x2+x53-y2_53 <=1 
C100: x2+x55 <=1 
C101: x2+x57 <=1 
C102: x2+x58 <=1 
C103: x2+x59-y2_59 <=1 
C104: x2+x62-y2_62 <=1 
C105: x2+x63 <=1 
C106: x2+x64 <=1 
C107: x3+x4 <=1 
C108: x3+x5 <=1 
C109: x3+x6 <=1 
C110: x3+x8 <=1 
C111: x3+x9 <=1 
C112: x3+x11-y3_11 <=1 
C113: x3+x12-y3_12 <=1 
C114: x3+x13 <=1 
C115: x3+x14 <=1 
C116: x3+x16-y3_16 <=1 
C117: x3+x17-y3_17 <=1 
C118: x3+x19 <=1 
C119: x3+x22-y3_22 <=1 
C120: x3+x24 <=1 
C121: x3+x25 <=1 
C122: x3+x28-y3_28 <=1 
C123: x3+x30 <=1 
C124: x3+x31-y3_31 <=1 
C125: x3+x34 <=1 
C126: x3+x35 <=1 
C127: x3+x36 <=1 
C128: x3+x40-y3_40 <=1 
C129: x3+x41 <=1 
C130: x3+x42-y3_42 <=1 
C131: x3+x43-y3_43 <=1 
C132: x3+x44 <=1 
C133: x3+x45 <=1 
C134: x3+x46-y3_46 <=1 
C135: x3+x47 <=1 
C136: x3+x49-y3_49 <=1 
C137: x3+x50 <=1 
C138: x3+x51 <=1 
C139: x3+x52 <=1 
C140: x3+x53-y3_53 <=1 
C141: x3+x54-y3_54 <=1 
C142: x3+x59-y3_59 <=1 
C143: x3+x60-y3_60 <=1 
C144: x3+x61-y3_61 <=1 
C145: x4+x5-y4_5 <=1 
C146: x4+x6-y4_6 <=1 
C147: x4+x8-y4_8 <=1 
C148: x4+x10-y4_10 <=1 
C149: x4+x11 <=1 
C150: x4+x12 <=1 
C151: x4+x15-y4_15 <=1 
C152: x4+x20 <=1 
C153: x4+x21 <=1 
C154: x4+x22 <=1 
C155: x4+x23-y4_23 <=1 
C156: x4+x24-y4_24 <=1 
C157: x4+x25 <=1 
C158: x4+x27 <=1 
C159: x4+x28-y4_28 <=1 
C160: x4+x29 <=1 
C161: x4+x31 <=1 
C162: x4+x32-y4_32 <=1 
C163: x4+x34-y4_34 <=1 
C164: x4+x37 <=1 
C165: x4+x39 <=1 
C166: x4+x41 <=1 
C167: x4+x42 <=1 
C168: x4+x43 <=1 
C169: x4+x44-y4_44 <=1 
C170: x4+x46-y4_46 <=1 
C171: x4+x48-y4_48 <=1 
C172: x4+x49-y4_49 <=1 
C173: x4+x52 <=1 
C174: x4+x53-y4_53 <=1 
C175: x4+x56-y4_56 <=1 
C176: x4+x58 <=1 
C177: x4+x59-y4_59 <=1 
C178: x4+x61 <=1 
C179: x4+x62-y4_62 <=1 
C180: x4+x63 <=1 
C181: x5+x6-y5_6 <=1 
C182: x5+x8-y5_8 <=1 
C183: x5+x9 <=1 
C184: x5+x10 <=1 
C185: x5+x13 <=1 
C186: x5+x14-y5_14 <=1 
C187: x5+x17-y5_17 <=1 
C188: x5+x19-y5_19 <=1 
C189: x5+x20-y5_20 <=1 
C190: x5+x21-y5_21 <=1 
C191: x5+x23-y5_23 <=1 
C192: x5+x25 <=1 
C193: x5+x26-y5_26 <=1 
C194: x5+x27-y5_27 <=1 
C195: x5+x29 <=1 
C196: x5+x31-y5_31 <=1 
C197: x5+x34-y5_34 <=1 
C198: x5+x35-y5_35 <=1 
C199: x5+x36-y5_36 <=1 
C200: x5+x38 <=1 
C201: x5+x40 <=1 
C202: x5+x41-y5_41 <=1 
C203: x5+x42 <=1 
C204: x5+x43 <=1 
C205: x5+x44 <=1 
C206: x5+x45 <=1 
C207: x5+x49-y5_49 <=1 
C208: x5+x53 <=1 
C209: x5+x54-y5_54 <=1 
C210: x5+x55-y5_55 <=1 
C211: x5+x58 <=1 
C212: x5+x61 <=1 
C213: x5+x62-y5_62 <=1 
C214: x5+x63 <=1 
C215: x5+x64-y5_64 <=1 
C216: x6+x7-y6_7 <=1 
C217: x6+x8 <=1 
C218: x6+x9 <=1 
C219: x6+x12-y6_12 <=1 
C220: x6+x14-y6_14 <=1 
C221: x6+x15-y6_15 <=1 
C222: x6+x17 <=1 
C223: x6+x18 <=1 
C224: x6+x19 <=1 
C225: x6+x20-y6_20 <=1 
C226: x6+x21-y6_21 <=1 
C227: x6+x26-y6_26 <=1 
C228: x6+x28-y6_28 <=1 
C229: x6+x30 <=1 
C230: x6+x31-y6_31 <=1 
C231: x6+x32-y6_32 <=1 
C232: x6+x34 <=1 
C233: x6+x35 <=1 
C234: x6+x36-y6_36 <=1 
C235: x6+x39-y6_39 <=1 
C236: x6+x41 <=1 
C237: x6+x42 <=1 
C238: x6+x46 <=1 
C239: x6+x48-y6_48 <=1 
C240: x6+x50 <=1 
C241: x6+x55 <=1 
C242: x6+x56 <=1 
C243: x6+x57 <=1 
C244: x6+x61-y6_61 <=1 
C245: x6+x62-y6_62 <=1 
C246: x6+x64-y6_64 <=1 
C247: x7+x8 <=1 
C248: x7+x9 <=1 
C249: x7+x10 <=1 
C250: x7+x11-y7_11 <=1 
C251: x7+x12-y7_12 <=1 
C252: x7+x13 <=1 
C253: x7+x16-y7_16 <=1 
C254: x7+x17 <=1 
C255: x7+x18-y7_18 <=1 
C256: x7+x19-y7_19 <=1 
C257: x7+x21-y7_21 <=1 
C258: x7+x23 <=1 
C259: x7+x25 <=1 
C260: x7+x26-y7_26 <=1 
C261: x7+x27 <=1 
C262: x7+x28 <=1 
C263: x7+x29 <=1 
C264: x7+x30 <=1 
C265: x7+x34-y7_34 <=1 
C266: x7+x35-y7_35 <=1 
C267: x7+x36-y7_36 <=1 
C268: x7+x37-y7_37 <=1 
C269: x7+x40-y7_40 <=1 
C270: x7+x43 <=1 
C271: x7+x44 <=1 
C272: x7+x46 <=1 
C273: x7+x47-y7_47 <=1 
C274: x7+x50-y7_50 <=1 
C275: x7+x53 <=1 
C276: x7+x57-y7_57 <=1 
C277: x7+x58 <=1 
C278: x7+x60 <=1 
C279: x7+x61-y7_61 <=1 
C280: x7+x62 <=1 
C281: x8+x10 <=1 
C282: x8+x11-y8_11 <=1 
C283: x8+x13 <=1 
C284: x8+x16-y8_16 <=1 
C285: x8+x18 <=1 
C286: x8+x20-y8_20 <=1 
C287: x8+x21-y8_21 <=1 
C288: x8+x22-y8_22 <=1 
C289: x8+x24 <=1 
C290: x8+x25 <=1 
C291: x8+x26-y8_26 <=1 
C292: x8+x27 <=1 
C293: x8+x28-y8_28 <=1 
C294: x8+x29-y8_29 <=1 
C295: x8+x30 <=1 
C296: x8+x31 <=1 
C297: x8+x32-y8_32 <=1 
C298: x8+x35-y8_35 <=1 
C299: x8+x36 <=1 
C300: x8+x37 <=1 
C301: x8+x38 <=1 
C302: x8+x39 <=1 
C303: x8+x40-y8_40 <=1 
C304: x8+x41-y8_41 <=1 
C305: x8+x42 <=1 
C306: x8+x44-y8_44 <=1 
C307: x8+x46 <=1 
C308: x8+x47-y8_47 <=1 
C309: x8+x48 <=1 
C310: x8+x49-y8_49 <=1 
C311: x8+x51 <=1 
C312: x8+x52-y8_52 <=1 
C313: x8+x53-y8_53 <=1 
C314: x8+x55-y8_55 <=1 
C315: x8+x56 <=1 
C316: x8+x57 <=1 
C317: x8+x59-y8_59 <=1 
C318: x8+x60-y8_60 <=1 
C319: x8+x63 <=1 
C320: x8+x64 <=1 
C321: x9+x10-y9_10 <=1 
C322: x9+x11 <=1 
C323: x9+x12-y9_12 <=1 
C324: x9+x13-y9_13 <=1 
C325: x9+x14-y9_14 <=1 
C326: x9+x16 <=1 
C327: x9+x17-y9_17 <=1 
C328: x9+x18 <=1 
C329: x9+x19-y9_19 <=1 
C330: x9+x20-y9_20 <=1 
C331: x9+x21-y9_21 <=1 
C332: x9+x31 <=1 
C333: x9+x38-y9_38 <=1 
C334: x9+x40 <=1 
C335: x9+x41-y9_41 <=1 
C336: x9+x42 <=1 
C337: x9+x44 <=1 
C338: x9+x45-y9_45 <=1 
C339: x9+x46-y9_46 <=1 
C340: x9+x47-y9_47 <=1 
C341: x9+x48 <=1 
C342: x9+x51-y9_51 <=1 
C343: x9+x53 <=1 
C344: x9+x54 <=1 
C345: x9+x55-y9_55 <=1 
C346: x9+x56-y9_56 <=1 
C347: x9+x60-y9_60 <=1 
C348: x9+x61-y9_61 <=1 
C349: x9+x63 <=1 
C350: x10+x11 <=1 
C351: x10+x12 <=1 
C352: x10+x13 <=1 
C353: x10+x14-y10_14 <=1 
C354: x10+x15 <=1 
C355: x10+x16 <=1 
C356: x10+x18 <=1 
C357: x10+x19 <=1 
C358: x10+x20-y10_20 <=1 
C359: x10+x22-y10_22 <=1 
C360: x10+x24 <=1 
C361: x10+x25 <=1 
C362: x10+x27-y10_27 <=1 
C363: x10+x29 <=1 
C364: x10+x31 <=1 
C365: x10+x32-y10_32 <=1 
C366: x10+x33 <=1 
C367: x10+x34-y10_34 <=1 
C368: x10+x38-y10_38 <=1 
C369: x10+x39-y10_39 <=1 
C370: x10+x41-y10_41 <=1 
C371: x10+x42-y10_42 <=1 
C372: x10+x43 <=1 
C373: x10+x44 <=1 
C374: x10+x45-y10_45 <=1 
C375: x10+x47 <=1 
C376: x10+x49 <=1 
C377: x10+x53-y10_53 <=1 
C378: x10+x55 <=1 
C379: x10+x56-y10_56 <=1 
C380: x10+x58 <=1 
C381: x10+x60-y10_60 <=1 
C382: x10+x61-y10_61 <=1 
C383: x10+x63-y10_63 <=1 
C384: x10+x64 <=1 
C385: x11+x12 <=1 
C386: x11+x13 <=1 
C387: x11+x14 <=1 
C388: x11+x15-y11_15 <=1 
C389: x11+x16 <=1 
C390: x11+x17-y11_17 <=1 
C391: x11+x20 <=1 
C392: x11+x21-y11_21 <=1 
C393: x11+x22-y11_22 <=1 
C394: x11+x23-y11_23 <=1 
C395: x11+x25 <=1 
C396: x11+x26-y11_26 <=1 
C397: x11+x28-y11_28 <=1 
C398: x11+x31-y11_31 <=1 
C399: x11+x32 <=1 
C400: x11+x35 <=1 
C401: x11+x36-y11_36 <=1 
C402: x11+x37 <=1 
C403: x11+x38-y11_38 <=1 
C404: x11+x39-y11_39 <=1 
C405: x11+x40 <=1 
C406: x11+x45 <=1 
C407: x11+x47 <=1 
C408: x11+x49-y11_49 <=1 
C409: x11+x50 <=1 
C410: x11+x53-y11_53 <=1 
C411: x11+x54 <=1 
C412: x11+x55-y11_55 <=1 
C413: x11+x56 <=1 
C414: x11+x57 <=1 
C415: x11+x58 <=1 
C416: x11+x59 <=1 
C417: x11+x60-y11_60 <=1 
C418: x11+x62-y11_62 <=1 
C419: x11+x63-y11_63 <=1 
C420: x11+x64 <=1 
C421: x12+x14 <=1 
C422: x12+x17 <=1 
C423: x12+x18 <=1 
C424: x12+x21-y12_21 <=1 
C425: x12+x22 <=1 
C426: x12+x23-y12_23 <=1 
C427: x12+x25 <=1 
C428: x12+x28-y12_28 <=1 
C429: x12+x29-y12_29 <=1 
C430: x12+x30-y12_30 <=1 
C431: x12+x32-y12_32 <=1 
C432: x12+x34-y12_34 <=1 
C433: x12+x37 <=1 
C434: x12+x38 <=1 
C435: x12+x39-y12_39 <=1 
C436: x12+x40-y12_40 <=1 
C437: x12+x41-y12_41 <=1 
C438: x12+x42-y12_42 <=1 
C439: x12+x43 <=1 
C440: x12+x44-y12_44 <=1 
C441: x12+x45 <=1 
C442: x12+x47-y12_47 <=1 
C443: x12+x48 <=1 
C444: x12+x49-y12_49 <=1 
C445: x12+x50-y12_50 <=1 
C446: x12+x51-y12_51 <=1 
C447: x12+x57-y12_57 <=1 
C448: x12+x59-y12_59 <=1 
C449: x12+x61-y12_61 <=1 
C450: x12+x62 <=1 
C451: x12+x63 <=1 
C452: x12+x64 <=1 
C453: x13+x14 <=1 
C454: x13+x15-y13_15 <=1 
C455: x13+x18 <=1 
C456: x13+x22-y13_22 <=1 
C457: x13+x26 <=1 
C458: x13+x27 <=1 
C459: x13+x28-y13_28 <=1 
C460: x13+x32 <=1 
C461: x13+x33 <=1 
C462: x13+x34-y13_34 <=1 
C463: x13+x37-y13_37 <=1 
C464: x13+x41 <=1 
C465: x13+x42-y13_42 <=1 
C466: x13+x43-y13_43 <=1 
C467: x13+x44 <=1 
C468: x13+x45 <=1 
C469: x13+x48-y13_48 <=1 
C470: x13+x50 <=1 
C471: x13+x51 <=1 
C472: x13+x52 <=1 
C473: x13+x53 <=1 
C474: x13+x54 <=1 
C475: x13+x55 <=1 
C476: x13+x56-y13_56 <=1 
C477: x13+x57 <=1 
C478: x13+x60 <=1 
C479: x13+x63-y13_63 <=1 
C480: x13+x64 <=1 
C481: x14+x15-y14_15 <=1 
C482: x14+x16 <=1 
C483: x14+x17 <=1 
C484: x14+x18 <=1 
C485: x14+x24-y14_24 <=1 
C486: x14+x25-y14_25 <=1 
C487: x14+x26 <=1 
C488: x14+x29-y14_29 <=1 
C489: x14+x31 <=1 
C490: x14+x33 <=1 
C491: x14+x34 <=1 
C492: x14+x35 <=1 
C493: x14+x37-y14_37 <=1 
C494: x14+x38 <=1 
C495: x14+x40 <=1 
C496: x14+x44-y14_44 <=1 
C497: x14+x45 <=1 
C498: x14+x50 <=1 
C499: x14+x52-y14_52 <=1 
C500: x14+x55-y14_55 <=1 
C501: x14+x56-y14_56 <=1 
C502: x14+x57-y14_57 <=1 
C503: x14+x60-y14_60 <=1 
C504: x14+x61 <=1 
C505: x14+x62-y14_62 <=1 
C506: x15+x16-y15_16 <=1 
C507: x15+x17-y15_17 <=1 
C508: x15+x18 <=1 
C509: x15+x19 <=1 
C510: x15+x21-y15_21 <=1 
C511: x15+x22 <=1 
C512: x15+x25-y15_25 <=1 
C513: x15+x26-y15_26 <=1 
C514: x15+x30-y15_30 <=1 
C515: x15+x32-y15_32 <=1 
C516: x15+x34-y15_34 <=1 
C517: x15+x35-y15_35 <=1 
C518: x15+x36 <=1 
C519: x15+x37-y15_37 <=1 
C520: x15+x38 <=1 
C521: x15+x39-y15_39 <=1 
C522: x15+x40-y15_40 <=1 
C523: x15+x41-y15_41 <=1 
C524: x15+x42-y15_42 <=1 
C525: x15+x43 <=1 
C526: x15+x44-y15_44 <=1 
C527: x15+x46-y15_46 <=1 
C528: x15+x47-y15_47 <=1 
C529: x15+x50 <=1 
C530: x15+x51-y15_51 <=1 
C531: x15+x52-y15_52 <=1 
C532: x15+x53-y15_53 <=1 
C533: x15+x55 <=1 
C534: x15+x59-y15_59 <=1 
C535: x15+x63-y15_63 <=1 
C536: x15+x64 <=1 
C537: x16+x17 <=1 
C538: x16+x19-y16_19 <=1 
C539: x16+x20-y16_20 <=1 
C540: x16+x22-y16_22 <=1 
C541: x16+x24-y16_24 <=1 
C542: x16+x26 <=1 
C543: x16+x27-y16_27 <=1 
C544: x16+x28-y16_28 <=1 
C545: x16+x29 <=1 
C546: x16+x32-y16_32 <=1 
C547: x16+x33-y16_33 <=1 
C548: x16+x36-y16_36 <=1 
C549: x16+x37-y16_37 <=1 
C550: x16+x39-y16_39 <=1 
C551: x16+x41-y16_41 <=1 
C552: x16+x44 <=1 
C553: x16+x47 <=1 
C554: x16+x48 <=1 
C555: x16+x50 <=1 
C556: x16+x52 <=1 
C557: x16+x54 <=1 
C558: x16+x55 <=1 
C559: x16+x58 <=1 
C560: x16+x61 <=1 
C561: x16+x62-y16_62 <=1 
C562: x16+x63 <=1 
C563: x16+x64 <=1 
C564: x17+x19 <=1 
C565: x17+x20 <=1 
C566: x17+x21 <=1 
C567: x17+x23 <=1 
C568: x17+x24-y17_24 <=1 
C569: x17+x25 <=1 
C570: x17+x26-y17_26 <=1 
C571: x17+x28-y17_28 <=1 
C572: x17+x29 <=1 
C573: x17+x30 <=1 
C574: x17+x31-y17_31 <=1 
C575: x17+x32-y17_32 <=1 
C576: x17+x33 <=1 
C577: x17+x34-y17_34 <=1 
C578: x17+x35-y17_35 <=1 
C579: x17+x38 <=1 
C580: x17+x39 <=1 
C581: x17+x40-y17_40 <=1 
C582: x17+x41 <=1 
C583: x17+x42-y17_42 <=1 
C584: x17+x44 <=1 
C585: x17+x46-y17_46 <=1 
C586: x17+x48-y17_48 <=1 
C587: x17+x49 <=1 
C588: x17+x51 <=1 
C589: x17+x52 <=1 
C590: x17+x53-y17_53 <=1 
C591: x17+x54-y17_54 <=1 
C592: x17+x56 <=1 
C593: x17+x57-y17_57 <=1 
C594: x17+x58 <=1 
C595: x17+x60-y17_60 <=1 
C596: x17+x61-y17_61 <=1 
C597: x17+x62-y17_62 <=1 
C598: x17+x63-y17_63 <=1 
C599: x18+x19-y18_19 <=1 
C600: x18+x20-y18_20 <=1 
C601: x18+x21 <=1 
C602: x18+x22 <=1 
C603: x18+x24-y18_24 <=1 
C604: x18+x26-y18_26 <=1 
C605: x18+x28 <=1 
C606: x18+x29-y18_29 <=1 
C607: x18+x31 <=1 
C608: x18+x34-y18_34 <=1 
C609: x18+x35-y18_35 <=1 
C610: x18+x36 <=1 
C611: x18+x37-y18_37 <=1 
C612: x18+x38 <=1 
C613: x18+x40-y18_40 <=1 
C614: x18+x42 <=1 
C615: x18+x44-y18_44 <=1 
C616: x18+x47-y18_47 <=1 
C617: x18+x49-y18_49 <=1 
C618: x18+x50-y18_50 <=1 
C619: x18+x51 <=1 
C620: x18+x54 <=1 
C621: x18+x59 <=1 
C622: x18+x61-y18_61 <=1 
C623: x18+x64 <=1 
C624: x19+x20 <=1 
C625: x19+x22-y19_22 <=1 
C626: x19+x23-y19_23 <=1 
C627: x19+x25 <=1 
C628: x19+x26-y19_26 <=1 
C629: x19+x29-y19_29 <=1 
C630: x19+x31 <=1 
C631: x19+x32 <=1 
C632: x19+x33 <=1 
C633: x19+x36-y19_36 <=1 
C634: x19+x39 <=1 
C635: x19+x40 <=1 
C636: x19+x44 <=1 
C637: x19+x45-y19_45 <=1 
C638: x19+x47 <=1 
C639: x19+x49-y19_49 <=1 
C640: x19+x51-y19_51 <=1 
C641: x19+x52 <=1 
C642: x19+x54-y19_54 <=1 
C643: x19+x55 <=1 
C644: x19+x56-y19_56 <=1 
C645: x19+x57-y19_57 <=1 
C646: x19+x58 <=1 
C647: x19+x59-y19_59 <=1 
C648: x19+x64-y19_64 <=1 
C649: x20+x21-y20_21 <=1 
C650: x20+x23-y20_23 <=1 
C651: x20+x25-y20_25 <=1 
C652: x20+x28-y20_28 <=1 
C653: x20+x29-y20_29 <=1 
C654: x20+x30-y20_30 <=1 
C655: x20+x31 <=1 
C656: x20+x32 <=1 
C657: x20+x33-y20_33 <=1 
C658: x20+x37-y20_37 <=1 
C659: x20+x38 <=1 
C660: x20+x39 <=1 
C661: x20+x40 <=1 
C662: x20+x42-y20_42 <=1 
C663: x20+x45-y20_45 <=1 
C664: x20+x49 <=1 
C665: x20+x51-y20_51 <=1 
C666: x20+x54 <=1 
C667: x20+x55 <=1 
C668: x20+x57-y20_57 <=1 
C669: x20+x58-y20_58 <=1 
C670: x20+x59 <=1 
C671: x20+x61 <=1 
C672: x20+x63 <=1 
C673: x21+x22-y21_22 <=1 
C674: x21+x24-y21_24 <=1 
C675: x21+x25-y21_25 <=1 
C676: x21+x26-y21_26 <=1 
C677: x21+x27-y21_27 <=1 
C678: x21+x28 <=1 
C679: x21+x32 <=1 
C680: x21+x34 <=1 
C681: x21+x37 <=1 
C682: x21+x39-y21_39 <=1 
C683: x21+x43 <=1 
C684: x21+x44-y21_44 <=1 
C685: x21+x45 <=1 
C686: x21+x46-y21_46 <=1 
C687: x21+x47 <=1 
C688: x21+x48 <=1 
C689: x21+x50 <=1 
C690: x21+x52-y21_52 <=1 
C691: x21+x55-y21_55 <=1 
C692: x21+x56-y21_56 <=1 
C693: x21+x57 <=1 
C694: x21+x58 <=1 
C695: x21+x60 <=1 
C696: x21+x61-y21_61 <=1 
C697: x21+x63-y21_63 <=1 
C698: x22+x23 <=1 
C699: x22+x24 <=1 
C700: x22+x25-y22_25 <=1 
C701: x22+x26-y22_26 <=1 
C702: x22+x27 <=1 
C703: x22+x28-y22_28 <=1 
C704: x22+x29 <=1 
C705: x22+x30 <=1 
C706: x22+x31-y22_31 <=1 
C707: x22+x32 <=1 
C708: x22+x33 <=1 
C709: x22+x37 <=1 
C710: x22+x39 <=1 
C711: x22+x40-y22_40 <=1 
C712: x22+x41-y22_41 <=1 
C713: x22+x42 <=1 
C714: x22+x43-y22_43 <=1 
C715: x22+x46 <=1 
C716: x22+x48 <=1 
C717: x22+x49-y22_49 <=1 
C718: x22+x51 <=1 
C719: x22+x52-y22_52 <=1 
C720: x22+x53 <=1 
C721: x22+x55 <=1 
C722: x22+x57 <=1 
C723: x22+x61-y22_61 <=1 
C724: x22+x63 <=1 
C725: x23+x26 <=1 
C726: x23+x27-y23_27 <=1 
C727: x23+x28 <=1 
C728: x23+x29-y23_29 <=1 
C729: x23+x30-y23_30 <=1 
C730: x23+x31-y23_31 <=1 
C731: x23+x32-y23_32 <=1 
C732: x23+x35-y23_35 <=1 
C733: x23+x37-y23_37 <=1 
C734: x23+x38-y23_38 <=1 
C735: x23+x40 <=1 
C736: x23+x43-y23_43 <=1 
C737: x23+x44-y23_44 <=1 
C738: x23+x46-y23_46 <=1 
C739: x23+x47-y23_47 <=1 
C740: x23+x49-y23_49 <=1 
C741: x23+x51 <=1 
C742: x23+x52 <=1 
C743: x23+x53 <=1 
C744: x23+x55 <=1 
C745: x23+x58 <=1 
C746: x23+x60-y23_60 <=1 
C747: x23+x62 <=1 
C748: x23+x64-y23_64 <=1 
C749: x24+x26 <=1 
C750: x24+x28-y24_28 <=1 
C751: x24+x31-y24_31 <=1 
C752: x24+x32 <=1 
C753: x24+x33-y24_33 <=1 
C754: x24+x34-y24_34 <=1 
C755: x24+x35-y24_35 <=1 
C756: x24+x38 <=1 
C757: x24+x39 <=1 
C758: x24+x40-y24_40 <=1 
C759: x24+x41 <=1 
C760: x24+x42 <=1 
C761: x24+x43 <=1 
C762: x24+x46 <=1 
C763: x24+x47 <=1 
C764: x24+x48 <=1 
C765: x24+x49 <=1 
C766: x24+x50 <=1 
C767: x24+x53-y24_53 <=1 
C768: x24+x54-y24_54 <=1 
C769: x24+x55 <=1 
C770: x24+x56 <=1 
C771: x24+x57 <=1 
C772: x24+x58-y24_58 <=1 
C773: x24+x63-y24_63 <=1 
C774: x24+x64-y24_64 <=1 
C775: x25+x26 <=1 
C776: x25+x28 <=1 
C777: x25+x31-y25_31 <=1 
C778: x25+x33 <=1 
C779: x25+x35 <=1 
C780: x25+x37 <=1 
C781: x25+x39 <=1 
C782: x25+x41-y25_41 <=1 
C783: x25+x42-y25_42 <=1 
C784: x25+x44-y25_44 <=1 
C785: x25+x45-y25_45 <=1 
C786: x25+x46 <=1 
C787: x25+x58 <=1 
C788: x25+x60-y25_60 <=1 
C789: x25+x61 <=1 
C790: x25+x62-y25_62 <=1 
C791: x25+x63-y25_63 <=1 
C792: x25+x64 <=1 
C793: x26+x27-y26_27 <=1 
C794: x26+x28-y26_28 <=1 
C795: x26+x30-y26_30 <=1 
C796: x26+x33-y26_33 <=1 
C797: x26+x38-y26_38 <=1 
C798: x26+x39 <=1 
C799: x26+x40 <=1 
C800: x26+x41-y26_41 <=1 
C801: x26+x42 <=1 
C802: x26+x43 <=1 
C803: x26+x44-y26_44 <=1 
C804: x26+x45 <=1 
C805: x26+x46-y26_46 <=1 
C806: x26+x47-y26_47 <=1 
C807: x26+x48-y26_48 <=1 
C808: x26+x51-y26_51 <=1 
C809: x26+x54 <=1 
C810: x26+x56 <=1 
C811: x26+x59 <=1 
C812: x26+x60 <=1 
C813: x26+x62 <=1 
C814: x26+x64-y26_64 <=1 
C815: x27+x29-y27_29 <=1 
C816: x27+x31-y27_31 <=1 
C817: x27+x35 <=1 
C818: x27+x38 <=1 
C819: x27+x39-y27_39 <=1 
C820: x27+x43 <=1 
C821: x27+x44-y27_44 <=1 
C822: x27+x45 <=1 
C823: x27+x46-y27_46 <=1 
C824: x27+x48 <=1 
C825: x27+x49 <=1 
C826: x27+x50 <=1 
C827: x27+x52-y27_52 <=1 
C828: x27+x53-y27_53 <=1 
C829: x27+x55 <=1 
C830: x27+x56-y27_56 <=1 
C831: x27+x59 <=1 
C832: x27+x60 <=1 
C833: x27+x62 <=1 
C834: x27+x63-y27_63 <=1 
C835: x27+x64-y27_64 <=1 
C836: x28+x30 <=1 
C837: x28+x31 <=1 
C838: x28+x32 <=1 
C839: x28+x33 <=1 
C840: x28+x34-y28_34 <=1 
C841: x28+x35 <=1 
C842: x28+x37-y28_37 <=1 
C843: x28+x38 <=1 
C844: x28+x41 <=1 
C845: x28+x42-y28_42 <=1 
C846: x28+x45 <=1 
C847: x28+x46-y28_46 <=1 
C848: x28+x47 <=1 
C849: x28+x49 <=1 
C850: x28+x50-y28_50 <=1 
C851: x28+x52-y28_52 <=1 
C852: x28+x53 <=1 
C853: x28+x54 <=1 
C854: x28+x55 <=1 
C855: x28+x57-y28_57 <=1 
C856: x28+x58-y28_58 <=1 
C857: x28+x59-y28_59 <=1 
C858: x28+x62-y28_62 <=1 
C859: x28+x63 <=1 
C860: x29+x30-y29_30 <=1 
C861: x29+x31-y29_31 <=1 
C862: x29+x35 <=1 
C863: x29+x36 <=1 
C864: x29+x37-y29_37 <=1 
C865: x29+x38-y29_38 <=1 
C866: x29+x39 <=1 
C867: x29+x40 <=1 
C868: x29+x44 <=1 
C869: x29+x47-y29_47 <=1 
C870: x29+x48 <=1 
C871: x29+x50-y29_50 <=1 
C872: x29+x51 <=1 
C873: x29+x52-y29_52 <=1 
C874: x29+x53-y29_53 <=1 
C875: x29+x55-y29_55 <=1 
C876: x29+x56-y29_56 <=1 
C877: x29+x57-y29_57 <=1 
C878: x29+x58-y29_58 <=1 
C879: x29+x61-y29_61 <=1 
C880: x29+x63-y29_63 <=1 
C881: x29+x64-y29_64 <=1 
C882: x30+x32-y30_32 <=1 
C883: x30+x34-y30_34 <=1 
C884: x30+x36 <=1 
C885: x30+x37-y30_37 <=1 
C886: x30+x38-y30_38 <=1 
C887: x30+x39 <=1 
C888: x30+x41 <=1 
C889: x30+x42-y30_42 <=1 
C890: x30+x43-y30_43 <=1 
C891: x30+x45-y30_45 <=1 
C892: x30+x46-y30_46 <=1 
C893: x30+x47 <=1 
C894: x30+x48 <=1 
C895: x30+x51 <=1 
C896: x30+x52 <=1 
C897: x30+x54 <=1 
C898: x30+x56-y30_56 <=1 
C899: x30+x58 <=1 
C900: x30+x60 <=1 
C901: x30+x61 <=1 
C902: x30+x62-y30_62 <=1 
C903: x30+x64-y30_64 <=1 
C904: x31+x32-y31_32 <=1 
C905: x31+x34 <=1 
C906: x31+x35 <=1 
C907: x31+x37-y31_37 <=1 
C908: x31+x38 <=1 
C909: x31+x40-y31_40 <=1 
C910: x31+x44 <=1 
C911: x31+x46-y31_46 <=1 
C912: x31+x47 <=1 
C913: x31+x50 <=1 
C914: x31+x52-y31_52 <=1 
C915: x31+x55-y31_55 <=1 
C916: x31+x56-y31_56 <=1 
C917: x31+x57 <=1 
C918: x31+x59 <=1 
C919: x31+x62-y31_62 <=1 
C920: x31+x64 <=1 
C921: x32+x35 <=1 
C922: x32+x36 <=1 
C923: x32+x38-y32_38 <=1 
C924: x32+x39-y32_39 <=1 
C925: x32+x42 <=1 
C926: x32+x43-y32_43 <=1 
C927: x32+x44 <=1 
C928: x32+x45-y32_45 <=1 
C929: x32+x46 <=1 
C930: x32+x48 <=1 
C931: x32+x55-y32_55 <=1 
C932: x32+x57 <=1 
C933: x32+x59 <=1 
C934: x32+x60-y32_60 <=1 
C935: x32+x61-y32_61 <=1 
C936: x32+x62 <=1 
C937: x32+x64-y32_64 <=1 
C938: x33+x34 <=1 
C939: x33+x36-y33_36 <=1 
C940: x33+x37 <=1 
C941: x33+x38-y33_38 <=1 
C942: x33+x40-y33_40 <=1 
C943: x33+x42 <=1 
C944: x33+x43 <=1 
C945: x33+x45-y33_45 <=1 
C946: x33+x49 <=1 
C947: x33+x50 <=1 
C948: x33+x51-y33_51 <=1 
C949: x33+x52 <=1 
C950: x33+x54-y33_54 <=1 
C951: x33+x55-y33_55 <=1 
C952: x33+x57 <=1 
C953: x33+x59-y33_59 <=1 
C954: x33+x61-y33_61 <=1 
C955: x33+x62-y33_62 <=1 
C956: x33+x63 <=1 
C957: x33+x64-y33_64 <=1 
C958: x34+x36-y34_36 <=1 
C959: x34+x37-y34_37 <=1 
C960: x34+x40-y34_40 <=1 
C961: x34+x41 <=1 
C962: x34+x42-y34_42 <=1 
C963: x34+x44-y34_44 <=1 
C964: x34+x47-y34_47 <=1 
C965: x34+x49-y34_49 <=1 
C966: x34+x50-y34_50 <=1 
C967: x34+x52-y34_52 <=1 
C968: x34+x54-y34_54 <=1 
C969: x34+x56 <=1 
C970: x34+x57 <=1 
C971: x34+x58 <=1 
C972: x34+x61-y34_61 <=1 
C973: x34+x62-y34_62 <=1 
C974: x34+x63-y34_63 <=1 
C975: x34+x64-y34_64 <=1 
C976: x35+x36-y35_36 <=1 
C977: x35+x37 <=1 
C978: x35+x40-y35_40 <=1 
C979: x35+x41 <=1 
C980: x35+x42 <=1 
C981: x35+x43 <=1 
C982: x35+x46-y35_46 <=1 
C983: x35+x47-y35_47 <=1 
C984: x35+x50 <=1 
C985: x35+x51-y35_51 <=1 
C986: x35+x52 <=1 
C987: x35+x53-y35_53 <=1 
C988: x35+x54-y35_54 <=1 
C989: x35+x56 <=1 
C990: x35+x57-y35_57 <=1 
C991: x35+x58 <=1 
C992: x35+x59-y35_59 <=1 
C993: x35+x62 <=1 
C994: x36+x37-y36_37 <=1 
C995: x36+x38-y36_38 <=1 
C996: x36+x39-y36_39 <=1 
C997: x36+x40 <=1 
C998: x36+x41 <=1 
C999: x36+x43 <=1 
C1000: x36+x46-y36_46 <=1 
C1001: x36+x47-y36_47 <=1 
C1002: x36+x48-y36_48 <=1 
C1003: x36+x49 <=1 
C1004: x36+x51-y36_51 <=1 
C1005: x36+x52 <=1 
C1006: x36+x53-y36_53 <=1 
C1007: x36+x54 <=1 
C1008: x36+x56-y36_56 <=1 
C1009: x36+x57-y36_57 <=1 
C1010: x36+x58 <=1 
C1011: x36+x59-y36_59 <=1 
C1012: x36+x62 <=1 
C1013: x36+x63 <=1 
C1014: x36+x64-y36_64 <=1 
C1015: x37+x39-y37_39 <=1 
C1016: x37+x40-y37_40 <=1 
C1017: x37+x41 <=1 
C1018: x37+x42-y37_42 <=1 
C1019: x37+x43 <=1 
C1020: x37+x45-y37_45 <=1 
C1021: x37+x47 <=1 
C1022: x37+x52-y37_52 <=1 
C1023: x37+x53 <=1 
C1024: x37+x57-y37_57 <=1 
C1025: x37+x59 <=1 
C1026: x37+x60 <=1 
C1027: x37+x62 <=1 
C1028: x37+x64 <=1 
C1029: x38+x39-y38_39 <=1 
C1030: x38+x40-y38_40 <=1 
C1031: x38+x42 <=1 
C1032: x38+x46 <=1 
C1033: x38+x50 <=1 
C1034: x38+x52-y38_52 <=1 
C1035: x38+x53 <=1 
C1036: x38+x56 <=1 
C1037: x38+x58 <=1 
C1038: x38+x59 <=1 
C1039: x38+x62-y38_62 <=1 
C1040: x38+x63 <=1 
C1041: x38+x64 <=1 
C1042: x39+x40 <=1 
C1043: x39+x42 <=1 
C1044: x39+x43-y39_43 <=1 
C1045: x39+x44 <=1 
C1046: x39+x45 <=1 
C1047: x39+x46-y39_46 <=1 
C1048: x39+x47-y39_47 <=1 
C1049: x39+x49 <=1 
C1050: x39+x51-y39_51 <=1 
C1051: x39+x53 <=1 
C1052: x39+x55 <=1 
C1053: x39+x57 <=1 
C1054: x39+x58-y39_58 <=1 
C1055: x39+x60 <=1 
C1056: x39+x62-y39_62 <=1 
C1057: x39+x64-y39_64 <=1 
C1058: x40+x41-y40_41 <=1 
C1059: x40+x43 <=1 
C1060: x40+x45 <=1 
C1061: x40+x46-y40_46 <=1 
C1062: x40+x47 <=1 
C1063: x40+x48 <=1 
C1064: x40+x50-y40_50 <=1 
C1065: x40+x54-y40_54 <=1 
C1066: x40+x55 <=1 
C1067: x40+x57 <=1 
C1068: x40+x59 <=1 
C1069: x40+x63 <=1 
C1070: x40+x64 <=1 
C1071: x41+x43 <=1 
C1072: x41+x44-y41_44 <=1 
C1073: x41+x46 <=1 
C1074: x41+x47-y41_47 <=1 
C1075: x41+x49 <=1 
C1076: x41+x55-y41_55 <=1 
C1077: x41+x57-y41_57 <=1 
C1078: x41+x58 <=1 
C1079: x41+x60 <=1 
C1080: x41+x61-y41_61 <=1 
C1081: x41+x63-y41_63 <=1 
C1082: x41+x64-y41_64 <=1 
C1083: x42+x46-y42_46 <=1 
C1084: x42+x47-y42_47 <=1 
C1085: x42+x50 <=1 
C1086: x42+x52 <=1 
C1087: x42+x55 <=1 
C1088: x42+x58 <=1 
C1089: x42+x59 <=1 
C1090: x42+x60 <=1 
C1091: x42+x61 <=1 
C1092: x42+x63-y42_63 <=1 
C1093: x43+x44 <=1 
C1094: x43+x46 <=1 
C1095: x43+x48 <=1 
C1096: x43+x49 <=1 
C1097: x43+x51-y43_51 <=1 
C1098: x43+x53-y43_53 <=1 
C1099: x43+x55-y43_55 <=1 
C1100: x43+x57-y43_57 <=1 
C1101: x43+x58-y43_58 <=1 
C1102: x43+x61-y43_61 <=1 
C1103: x43+x62 <=1 
C1104: x43+x63 <=1 
C1105: x43+x64 <=1 
C1106: x44+x46-y44_46 <=1 
C1107: x44+x47-y44_47 <=1 
C1108: x44+x49-y44_49 <=1 
C1109: x44+x50-y44_50 <=1 
C1110: x44+x51 <=1 
C1111: x44+x54-y44_54 <=1 
C1112: x44+x58 <=1 
C1113: x44+x59 <=1 
C1114: x44+x60 <=1 
C1115: x44+x61 <=1 
C1116: x44+x63 <=1 
C1117: x44+x64 <=1 
C1118: x45+x47-y45_47 <=1 
C1119: x45+x49 <=1 
C1120: x45+x50-y45_50 <=1 
C1121: x45+x51 <=1 
C1122: x45+x57 <=1 
C1123: x45+x58-y45_58 <=1 
C1124: x45+x59-y45_59 <=1 
C1125: x45+x60 <=1 
C1126: x45+x61-y45_61 <=1 
C1127: x45+x63-y45_63 <=1 
C1128: x45+x64 <=1 
C1129: x46+x47 <=1 
C1130: x46+x48-y46_48 <=1 
C1131: x46+x49 <=1 
C1132: x46+x54-y46_54 <=1 
C1133: x46+x55 <=1 
C1134: x46+x56-y46_56 <=1 
C1135: x46+x57 <=1 
C1136: x46+x58-y46_58 <=1 
C1137: x46+x59 <=1 
C1138: x46+x62-y46_62 <=1 
C1139: x47+x48-y47_48 <=1 
C1140: x47+x51-y47_51 <=1 
C1141: x47+x52 <=1 
C1142: x47+x54 <=1 
C1143: x47+x55 <=1 
C1144: x47+x56-y47_56 <=1 
C1145: x47+x59 <=1 
C1146: x47+x60-y47_60 <=1 
C1147: x47+x61 <=1 
C1148: x47+x62 <=1 
C1149: x47+x64-y47_64 <=1 
C1150: x48+x50 <=1 
C1151: x48+x52-y48_52 <=1 
C1152: x48+x54 <=1 
C1153: x48+x55 <=1 
C1154: x48+x56 <=1 
C1155: x48+x57-y48_57 <=1 
C1156: x48+x60 <=1 
C1157: x48+x61-y48_61 <=1 
C1158: x48+x64-y48_64 <=1 
C1159: x49+x50-y49_50 <=1 
C1160: x49+x51 <=1 
C1161: x49+x52 <=1 
C1162: x49+x54-y49_54 <=1 
C1163: x49+x55 <=1 
C1164: x49+x56-y49_56 <=1 
C1165: x49+x57 <=1 
C1166: x49+x60 <=1 
C1167: x49+x61-y49_61 <=1 
C1168: x49+x62-y49_62 <=1 
C1169: x49+x64-y49_64 <=1 
C1170: x50+x52-y50_52 <=1 
C1171: x50+x56 <=1 
C1172: x50+x59-y50_59 <=1 
C1173: x50+x60-y50_60 <=1 
C1174: x50+x62 <=1 
C1175: x50+x63-y50_63 <=1 
C1176: x50+x64 <=1 
C1177: x51+x56-y51_56 <=1 
C1178: x51+x58 <=1 
C1179: x51+x59-y51_59 <=1 
C1180: x51+x63 <=1 
C1181: x52+x54-y52_54 <=1 
C1182: x52+x55 <=1 
C1183: x52+x57-y52_57 <=1 
C1184: x52+x59-y52_59 <=1 
C1185: x52+x60 <=1 
C1186: x52+x61-y52_61 <=1 
C1187: x52+x63-y52_63 <=1 
C1188: x53+x54 <=1 
C1189: x53+x57 <=1 
C1190: x53+x58 <=1 
C1191: x53+x60-y53_60 <=1 
C1192: x53+x61 <=1 
C1193: x53+x62-y53_62 <=1 
C1194: x53+x63-y53_63 <=1 
C1195: x54+x55 <=1 
C1196: x54+x56-y54_56 <=1 
C1197: x54+x57-y54_57 <=1 
C1198: x54+x58 <=1 
C1199: x54+x61 <=1 
C1200: x54+x63-y54_63 <=1 
C1201: x54+x64 <=1 
C1202: x55+x56-y55_56 <=1 
C1203: x55+x58-y55_58 <=1 
C1204: x55+x59 <=1 
C1205: x55+x62-y55_62 <=1 
C1206: x55+x63-y55_63 <=1 
C1207: x55+x64-y55_64 <=1 
C1208: x56+x58 <=1 
C1209: x56+x59-y56_59 <=1 
C1210: x56+x61 <=1 
C1211: x57+x59 <=1 
C1212: x57+x61 <=1 
C1213: x57+x63 <=1 
C1214: x58+x60 <=1 
C1215: x58+x63 <=1 
C1216: x59+x61 <=1 
C1217: x59+x63-y59_63 <=1 
C1218: x60+x61 <=1 
C1219: x60+x64 <=1 
C1220: x61+x62 <=1 
C1221: x62+x63-y62_63 <=1 
C1222: x62+x64-y62_64 <=1 

binary
x0
x1
x2
x3
x4
x5
x6
x7
x8
x9
x10
x11
x12
x13
x14
x15
x16
x17
x18
x19
x20
x21
x22
x23
x24
x25
x26
x27
x28
x29
x30
x31
x32
x33
x34
x35
x36
x37
x38
x39
x40
x41
x42
x43
x44
x45
x46
x47
x48
x49
x50
x51
x52
x53
x54
x55
x56
x57
x58
x59
x60
x61
x62
x63
x64
