problem_generation/data/GISP/train/er_n=65_m=1222_p=0.60_SET2_setparam=100.00_alpha=0.50_976.sol
objective value:                                 1270
x1                                                  1 	(obj:100)
x5                                                  1 	(obj:100)
x7                                                  1 	(obj:100)
x14                                                 1 	(obj:100)
x15                                                 1 	(obj:100)
x21                                                 1 	(obj:100)
x39                                                 1 	(obj:100)
x41                                                 1 	(obj:100)
x51                                                 1 	(obj:100)
x52                                                 1 	(obj:100)
x54                                                 1 	(obj:100)
x56                                                 1 	(obj:100)
x59                                                 1 	(obj:100)
y15_21                                              1 	(obj:-1)
y15_39                                              1 	(obj:-1)
y14_15                                              1 	(obj:-1)
y7_21                                               1 	(obj:-1)
y51_59                                              1 	(obj:-1)
y5_41                                               1 	(obj:-1)
y5_54                                               1 	(obj:-1)
y39_51                                              1 	(obj:-1)
y1_51                                               1 	(obj:-1)
y5_21                                               1 	(obj:-1)
y1_5                                                1 	(obj:-1)
y1_14                                               1 	(obj:-1)
y15_52                                              1 	(obj:-1)
y52_59                                              1 	(obj:-1)
y15_51                                              1 	(obj:-1)
y52_54                                              1 	(obj:-1)
y21_39                                              1 	(obj:-1)
y21_52                                              1 	(obj:-1)
y51_56                                              1 	(obj:-1)
y1_41                                               1 	(obj:-1)
y1_54                                               1 	(obj:-1)
y54_56                                              1 	(obj:-1)
y5_14                                               1 	(obj:-1)
y1_21                                               1 	(obj:-1)
y15_41                                              1 	(obj:-1)
y15_59                                              1 	(obj:-1)
y56_59                                              1 	(obj:-1)
y21_56                                              1 	(obj:-1)
y14_52                                              1 	(obj:-1)
y14_56                                              1 	(obj:-1)
